naiveEg/simple/simple.smt2
; SMT-LIBv2 description generated by Yosys 0.8 (git sha1 UNKNOWN, clang 9.0.0 -fPIC -Os)
; yosys-smt2-stdt
; yosys-smt2-module simple
(declare-datatype |simple_s| ((|simple_mk|
  (|simple_is| Bool)
  (|simple#0| Bool) ; \clk
  (|simple#1| (_ BitVec 2)) ; \in
  (|simple#2| (_ BitVec 2)) ; \result
  (|simple#5| Bool) ; \rstn
)))
; yosys-smt2-input clk 1
; yosys-smt2-wire clk 1
; yosys-smt2-clock clk posedge
(define-fun |simple_n clk| ((state |simple_s|)) Bool (|simple#0| state))
; yosys-smt2-input in 2
; yosys-smt2-wire in 2
(define-fun |simple_n in| ((state |simple_s|)) (_ BitVec 2) (|simple#1| state))
; yosys-smt2-output result 2
; yosys-smt2-register result 2
; yosys-smt2-wire result 2
(define-fun |simple_n result| ((state |simple_s|)) (_ BitVec 2) (|simple#2| state))
; yosys-smt2-wire result_next 2
(define-fun |simple#3| ((state |simple_s|)) (_ BitVec 2) (bvadd (|simple#1| state) #b01)) ; \result_next2
(define-fun |simple#4| ((state |simple_s|)) (_ BitVec 2) (bvadd (|simple#3| state) #b01)) ; \result_next
(define-fun |simple_n result_next| ((state |simple_s|)) (_ BitVec 2) (|simple#4| state))
; yosys-smt2-wire result_next2 2
(define-fun |simple_n result_next2| ((state |simple_s|)) (_ BitVec 2) (|simple#3| state))
; yosys-smt2-input rstn 1
; yosys-smt2-wire rstn 1
(define-fun |simple_n rstn| ((state |simple_s|)) Bool (|simple#5| state))
(define-fun |simple#6| ((state |simple_s|)) (_ BitVec 2) (ite (|simple#5| state) (|simple#4| state) #b00)) ; $0\result[1:0]
(define-fun |simple_a| ((state |simple_s|)) Bool true)
(define-fun |simple_u| ((state |simple_s|)) Bool true)
(define-fun |simple_i| ((state |simple_s|)) Bool true)
(define-fun |simple_h| ((state |simple_s|)) Bool true)
(define-fun |simple_t| ((state |simple_s|) (next_state |simple_s|)) Bool 
  (= (|simple#6| state) (|simple#2| next_state)) ; $procdff$8 \result
) ; end of module simple
; yosys-smt2-topmod simple
; end of yosys output
